Instance name: /mnt/c/Users/ORG/CLionProjects/uMV-FSTSP/Murray_Chu_2015_test_data/FSTSP/FSTSP_10_customer_problems/20140810T123437v9

drone speed: 0.6 miles/minute
uav non-eligible customer: 10 
Printing number of nodes: 11

Set parameter Threads to value 20
Gurobi Optimizer version 11.0.0 build v11.0.0rc2 (linux64 - "Ubuntu 22.04.3 LTS")

CPU model: 13th Gen Intel(R) Core(TM) i5-13500, instruction set [SSE2|AVX|AVX2]
Thread count: 10 physical cores, 20 logical processors, using up to 20 threads

Optimize a model with 6191 rows, 1825 columns and 197592 nonzeros
Model fingerprint: 0x87044db2
Variable types: 11 continuous, 1814 integer (1814 binary)
Coefficient statistics:
  Matrix range     [4e-01, 2e+01]
  Objective range  [8e-01, 2e+01]
  Bounds range     [1e+00, 1e+00]
  RHS range        [1e+00, 8e+00]
Found heuristic solution: objective 107.0831389
Presolve removed 471 rows and 631 columns
Presolve time: 0.57s
Presolved: 5720 rows, 1194 columns, 164824 nonzeros
Variable types: 9 continuous, 1185 integer (1185 binary)

Root relaxation: objective 3.798204e+01, 3223 iterations, 0.23 seconds (0.55 work units)

    Nodes    |    Current Node    |     Objective Bounds      |     Work
 Expl Unexpl |  Obj  Depth IntInf | Incumbent    BestBd   Gap | It/Node Time

     0     0   37.98204    0   82  107.08314   37.98204  64.5%     -    0s
H    0     0                      61.9926664   37.98204  38.7%     -    0s
H    0     0                      54.3764269   37.98204  30.1%     -    0s
H    0     0                      53.3793968   37.98225  28.8%     -    1s
     0     0   38.27794    0   97   53.37940   38.27794  28.3%     -    1s
H    0     0                      52.1535994   38.28596  26.6%     -    1s
H    0     0                      51.8214842   38.30483  26.1%     -    1s
     0     0   38.30540    0  145   51.82148   38.30540  26.1%     -    1s
H    0     0                      48.5744374   38.31414  21.1%     -    1s
     0     0   38.31414    0  144   48.57444   38.31414  21.1%     -    1s
     0     0   38.56538    0  149   48.57444   38.56538  20.6%     -    1s
     0     0   38.56538    0  149   48.57444   38.56538  20.6%     -    1s
     0     0   38.62261    0  132   48.57444   38.62261  20.5%     -    1s
     0     0   38.81394    0  134   48.57444   38.81394  20.1%     -    1s
H    0     0                      46.0561349   38.84233  15.7%     -    2s
     0     0   38.84233    0  174   46.05613   38.84233  15.7%     -    2s
     0     0   38.92284    0  176   46.05613   38.92284  15.5%     -    2s
     0     0   38.92821    0  169   46.05613   38.92821  15.5%     -    2s
     0     0   38.92821    0  169   46.05613   38.92821  15.5%     -    2s
H    0     0                      45.5628053   38.92821  14.6%     -    2s
     0     2   38.92821    0  169   45.56281   38.92821  14.6%     -    2s
H   47    53                      43.4820168   41.61206  4.30%   223    3s
   580    58     cutoff   14        43.48202   42.22808  2.88%  76.5    5s

Cutting planes:
  Gomory: 8
  Cover: 2
  Clique: 4
  MIR: 13
  Zero half: 32
  RLT: 7

Explored 937 nodes (64487 simplex iterations) in 5.79 seconds (10.93 work units)
Thread count was 20 (of 20 available processors)

Solution count 10: 43.482 45.5628 46.0561 ... 107.083

Optimal solution found (tolerance 1.00e-04)
Best objective 4.348201683998e+01, best bound 4.348201683998e+01, gap 0.0000%
